c cnf/enc1_burglary.cnf
c bif/bulglary.bif
c
p cnf 18 48
c weights 1 1 1 1 0.7 1 0.3 1 1 1 1 1 0.2 1 0.8 1 1 1 1 1 0.9 1 0.8 1 0.1 1 0.0 1 0.1 1 0.2 1 0.9 1 1.0 1
1 2 0
-1 -2 0
-1 3 0
-3 1 0
-2 4 0
-4 2 0
5 6 0
-5 -6 0
-5 7 0
-7 5 0
-6 8 0
-8 6 0
9 10 0
-9 -10 0
-9 -1 -5 11 0
-11 9 0
-11 1 0
-11 5 0
-9 -1 -6 12 0
-12 9 0
-12 1 0
-12 6 0
-9 -2 -5 13 0
-13 9 0
-13 2 0
-13 5 0
-9 -2 -6 14 0
-14 9 0
-14 2 0
-14 6 0
-10 -1 -5 15 0
-15 10 0
-15 1 0
-15 5 0
-10 -1 -6 16 0
-16 10 0
-16 1 0
-16 6 0
-10 -2 -5 17 0
-17 10 0
-17 2 0
-17 5 0
-10 -2 -6 18 0
-18 10 0
-18 2 0
-18 6 0
9 0
5 0
